c  **** 1,3-WPM transformed formula ****
c 
p wcnf 5 12 6
c ===== Hard Clauses =====
6 1 2 0
6 1 3 0
6 1 4 0
6 1 5 0
6 2 3 0
6 3 4 0
6 4 5 0
c ===== Soft Clauses (Sum weights: 5) =====
1 -1 0
1 -2 0
1 -3 0
1 -4 0
1 -5 0
